NAME : traveling-santa-2018-prime-paths.30637.tour
COMMENT : Length = 30637
COMMENT : Found by LKH [Keld Helsgaun] Sun Jun 12 19:59:37 2022
TYPE : TOUR
DIMENSION : 100
TOUR_SECTION
1
22
83
47
89
33
98
43
65
2
39
54
16
87
78
91
23
99
28
77
80
96
20
24
11
3
90
79
37
58
35
27
25
69
5
42
72
66
93
46
36
76
14
52
32
71
40
6
88
73
85
34
29
8
70
64
30
19
67
61
17
68
94
84
9
44
49
31
12
48
57
10
82
81
62
53
59
86
92
56
60
97
95
74
15
18
4
41
26
7
75
51
63
13
38
45
50
21
55
100
-1
EOF
